32      4       
11      14      17      15      
0       0       0       0       0       1       2       
5       0       6       3       0       1       3       
9       11      13      0       0       1       4       
8       0       3       10      0       1       5       
10      0       7       0       8       1       6       
7       3       0       0       8       2       7       14      
7       0       4       9       0       1       8       
3       0       0       17      4       2       9       11      
7       5       0       4       0       2       10      16      
8       0       3       0       12      2       12      19      
7       0       14      9       0       2       15      16      
6       10      0       1       0       1       13      
1       0       0       17      11      1       15      
5       11      0       8       0       1       16      
8       0       0       6       1       1       17      
8       0       10      9       0       1       17      
10      8       0       0       3       1       18      
9       0       9       0       15      1       20      
10      1       0       10      0       1       20      
1       1       0       3       0       1       21      
3       4       0       0       7       1       22      
1       4       1       0       0       2       23      26      
3       11      0       0       1       2       24      28      
5       3       0       10      0       1       25      
9       0       6       0       8       1       27      
5       0       10      0       8       1       28      
10      0       6       0       14      1       29      
4       0       7       12      0       1       29      
1       4       6       0       0       1       30      
6       5       0       0       9       1       31      
7       2       0       0       4       1       32      
0       0       0       0       0       0       
